p cnf 24 123
4 7 11 16 22 29 37 46 0
8 12 17 23 30 38 47 57 0
13 18 24 31 39 48 58 69 0
-4 -8 0
-7 -12 0
-11 -17 0
-16 -23 0
-22 -30 0
-29 -38 0
-37 -47 0
-46 -57 0
-4 -13 0
-7 -18 0
-11 -24 0
-16 -31 0
-22 -39 0
-29 -48 0
-37 -58 0
-46 -69 0
-8 -13 0
-12 -18 0
-17 -24 0
-23 -31 0
-30 -39 0
-38 -48 0
-47 -58 0
-57 -69 0
-4 -12 0
-4 -17 0
-4 -47 0
-4 -57 0
-7 -23 0
-7 -30 0
-7 -47 0
-11 -30 0
-11 -47 0
-11 -57 0
-16 -47 0
-22 -47 0
-22 -57 0
-29 -47 0
-29 -57 0
-37 -57 0
-4 -18 0
-4 -24 0
-4 -58 0
-4 -69 0
-7 -31 0
-7 -39 0
-7 -58 0
-11 -39 0
-11 -58 0
-11 -69 0
-16 -58 0
-22 -58 0
-22 -69 0
-29 -58 0
-29 -69 0
-37 -69 0
-8 -7 0
-8 -11 0
-8 -37 0
-8 -46 0
-12 -16 0
-12 -22 0
-12 -37 0
-17 -22 0
-17 -37 0
-17 -46 0
-23 -37 0
-30 -37 0
-30 -46 0
-38 -37 0
-38 -46 0
-47 -46 0
-8 -18 0
-8 -24 0
-8 -58 0
-8 -69 0
-12 -31 0
-12 -39 0
-12 -58 0
-17 -39 0
-17 -58 0
-17 -69 0
-23 -58 0
-30 -58 0
-30 -69 0
-38 -58 0
-38 -69 0
-47 -69 0
-13 -7 0
-13 -11 0
-13 -37 0
-13 -46 0
-18 -16 0
-18 -22 0
-18 -37 0
-24 -22 0
-24 -37 0
-24 -46 0
-31 -37 0
-39 -37 0
-39 -46 0
-48 -37 0
-48 -46 0
-58 -46 0
-13 -12 0
-13 -17 0
-13 -47 0
-13 -57 0
-18 -23 0
-18 -30 0
-18 -47 0
-24 -30 0
-24 -47 0
-24 -57 0
-31 -47 0
-39 -47 0
-39 -57 0
-48 -47 0
-48 -57 0
-58 -57 0
